(set-logic QF_S)
(declare-fun var0 () String)
(assert (str.in.re var0 (re.++ (re.* (re.union (str.to.re "0") (str.to.re "11"))) (re.++ (re.* (re.* (str.to.re "222"))) (re.++ (re.union (re.union (str.to.re "3") (str.to.re "4")) (re.union (str.to.re "5") (str.to.re "6"))) (re.++ (re.union (re.* (str.to.re "777")) (re.* (str.to.re "8"))) (re.++ (re.* (re.union (str.to.re "99") (str.to.re "aa"))) (re.++ (re.union (re.union (str.to.re "bbb") (str.to.re "ccc")) (re.union (str.to.re "ddd") (str.to.re "e"))) (re.++ (re.* (re.+ (str.to.re "f"))) (re.++ (re.+ (re.+ (str.to.re "gg"))) (re.++ (re.union (re.union (str.to.re "h") (str.to.re "i")) (re.union (str.to.re "jjj") (str.to.re "k"))) (re.* (re.union (str.to.re "lll") (str.to.re "m"))))))))))))))
(assert (<= 176 (str.len var0)))
(check-sat)